letting input=[24,51,24,41,57,7,28,39,52,65,14,70,2,9,26,31,7,64,64,69,34,10,46,9,26,20,35,31,29,51,49,53,33,57,58]
letting output=[56,71,11,46,14,90,38,63,73,89,60,79,55,12,14,36,42,82,6,42,60,69,43,69,49,81,55,87,50,77,25,11,36,30,9,83,11,59,48,72,64,44,22,90,75]
letting MAX_OPS=999
letting num_registers=1
